n_res = 5;
n_events = 22;
n_prec = 46;
source = 1;
sink = 22;
min_lvl = [-2, -3, -4, -11, 3];
max_lvl = [4, 1, 1, -4, 6];
rr = [| 0, -1, 0, 0, 1, -1, -1, 2, 1, 2, 0, -2, 0, 0, 0, 0, -1, 2, 1, 0, 1, 0
      | 0, 0, -1, -1, 2, 0, 0, -1, -2, -1, 0, 1, 1, 0, 1, -1, -1, 2, 2, 0, 0, 0
      | 0, 0, 0, 1, 0, 0, -2, -1, -2, 2, 0, -2, 0, 2, 0, -1, 0, -1, 1, 1, -2, 0
      | 0, 0, -1, 0, 0, -1, -2, -1, 1, -2, 1, -2, 0, -1, -2, 1, 0, 0, 0, -2, 0, 0
      | 0, 0, 0, 2, 2, 0, 0, 0, 1, 0, 2, 0, -2, -1, 0, 2, -1, -2, 0, 0, 0, 0 |];
prec = [| 1, 0, 5
        | 1, 0, 3
        | 1, 0, 7
        | 1, 0, 4
        | 1, 0, 2
        | 2, 4, 13
        | 2, 20, 12
        | 3, 21, 20
        | 4, 5, 9
        | 4, -2, 21
        | 5, 6, 15
        | 5, -3, 7
        | 6, 18, 12
        | 7, 3, 11
        | 8, -88, 11
        | 8, 23, 21
        | 8, 10, 15
        | 9, 5, 21
        | 9, -11, 18
        | 9, -11, 16
        | 10, 0, 17
        | 10, -48, 13
        | 10, 5, 9
        | 10, -2, 11
        | 10, 18, 21
        | 11, 21, 17
        | 11, 5, 16
        | 12, 14, 8
        | 13, -1, 10
        | 13, 6, 18
        | 13, 6, 8
        | 14, 0, 16
        | 14, -69, 13
        | 15, 8, 19
        | 15, 0, 14
        | 16, 1, 18
        | 17, -3, 6
        | 18, -19, 16
        | 18, 4, 19
        | 19, -10, 16
        | 19, -4, 21
        | 19, 9, 22
        | 19, -8, 9
        | 20, 3, 17
        | 20, 3, 14
        | 21, 5, 22 |];
